p cnf 964 2475
51 -2 -1 0
-51 2 0
-51 1 0
52 -51 -3 0
-52 51 0
-52 3 0
53 -697 -698 0
-53 697 0
-53 698 0
54 -53 -5 0
-54 53 0
-54 5 0
55 -699 -700 0
-55 699 0
-55 700 0
56 -701 -702 0
-56 701 0
-56 702 0
57 -56 -703 0
-57 56 0
-57 703 0
58 -704 -55 0
-58 704 0
-58 55 0
59 -10 -9 0
-59 10 0
-59 9 0
60 -59 -705 0
-60 59 0
-60 705 0
61 -706 -58 0
-61 706 0
-61 58 0
62 -707 -12 0
-62 707 0
-62 12 0
63 -62 -708 0
-63 62 0
-63 708 0
64 -709 -61 0
-64 709 0
-64 61 0
65 -15 -14 0
-65 15 0
-65 14 0
66 -65 -16 0
-66 65 0
-66 16 0
67 -710 -64 0
-67 710 0
-67 64 0
68 -18 -711 0
-68 18 0
-68 711 0
69 -68 -19 0
-69 68 0
-69 19 0
70 -712 -67 0
-70 712 0
-70 67 0
71 -713 -20 0
-71 713 0
-71 20 0
72 -71 -22 0
-72 71 0
-72 22 0
73 -714 -70 0
-73 714 0
-73 70 0
74 -715 -18 0
-74 715 0
-74 18 0
75 -74 -13 0
-75 74 0
-75 13 0
76 -716 -73 0
-76 716 0
-76 73 0
77 -717 -10 0
-77 717 0
-77 10 0
78 -77 -707 0
-78 77 0
-78 707 0
79 -718 -76 0
-79 718 0
-79 76 0
80 -25 -713 0
-80 25 0
-80 713 0
81 -80 -26 0
-81 80 0
-81 26 0
82 -719 -79 0
-82 719 0
-82 79 0
83 -27 -2 0
-83 27 0
-83 2 0
84 -83 -15 0
-84 83 0
-84 15 0
85 -720 -82 0
-85 720 0
-85 82 0
86 -721 -28 0
-86 721 0
-86 28 0
87 -86 -30 0
-87 86 0
-87 30 0
88 -722 -85 0
-88 722 0
-88 85 0
89 -717 -702 0
-89 717 0
-89 702 0
90 -89 -31 0
-90 89 0
-90 31 0
91 -723 -88 0
-91 723 0
-91 88 0
92 -32 -11 0
-92 32 0
-92 11 0
93 -92 -16 0
-93 92 0
-93 16 0
94 -724 -91 0
-94 724 0
-94 91 0
95 -33 -4 0
-95 33 0
-95 4 0
96 -95 -15 0
-96 95 0
-96 15 0
97 -725 -94 0
-97 725 0
-97 94 0
98 -34 -28 0
-98 34 0
-98 28 0
99 -98 -726 0
-99 98 0
-99 726 0
100 -727 -97 0
-100 727 0
-100 97 0
101 -37 -728 0
-101 37 0
-101 728 0
102 -101 -729 0
-102 101 0
-102 729 0
103 -730 -100 0
-103 730 0
-103 100 0
104 -731 -711 0
-104 731 0
-104 711 0
105 -104 -732 0
-105 104 0
-105 732 0
106 -733 -103 0
-106 733 0
-106 103 0
107 -40 -734 0
-107 40 0
-107 734 0
108 -107 -735 0
-108 107 0
-108 735 0
109 -736 -106 0
-109 736 0
-109 106 0
110 -715 -12 0
-110 715 0
-110 12 0
111 -110 -10 0
-111 110 0
-111 10 0
112 -737 -109 0
-112 737 0
-112 109 0
113 -41 -8 0
-113 41 0
-113 8 0
114 -113 -707 0
-114 113 0
-114 707 0
115 -738 -112 0
-115 738 0
-115 112 0
116 -42 -739 0
-116 42 0
-116 739 0
117 -116 -740 0
-117 116 0
-117 740 0
118 -741 -115 0
-118 741 0
-118 115 0
119 -17 -697 0
-119 17 0
-119 697 0
120 -119 -742 0
-120 119 0
-120 742 0
121 -743 -118 0
-121 743 0
-121 118 0
122 -38 -2 0
-122 38 0
-122 2 0
123 -122 -5 0
-123 122 0
-123 5 0
124 -744 -121 0
-124 744 0
-124 121 0
125 -39 -21 0
-125 39 0
-125 21 0
126 -125 -702 0
-126 125 0
-126 702 0
127 -745 -124 0
-127 745 0
-127 124 0
128 -746 -20 0
-128 746 0
-128 20 0
129 -128 -3 0
-129 128 0
-129 3 0
130 -747 -127 0
-130 747 0
-130 127 0
131 -748 -14 0
-131 748 0
-131 14 0
132 -131 -44 0
-132 131 0
-132 44 0
133 -749 -130 0
-133 749 0
-133 130 0
134 -44 -25 0
-134 44 0
-134 25 0
135 -134 -740 0
-135 134 0
-135 740 0
136 -750 -133 0
-136 750 0
-136 133 0
137 -751 -2 0
-137 751 0
-137 2 0
138 -137 -702 0
-138 137 0
-138 702 0
139 -752 -136 0
-139 752 0
-139 136 0
140 -753 -1 0
-140 753 0
-140 1 0
141 -140 -27 0
-141 140 0
-141 27 0
142 -754 -139 0
-142 754 0
-142 139 0
143 -45 -20 0
-143 45 0
-143 20 0
144 -143 -39 0
-144 143 0
-144 39 0
145 -755 -142 0
-145 755 0
-145 142 0
146 -39 -748 0
-146 39 0
-146 748 0
147 -146 -15 0
-147 146 0
-147 15 0
148 -756 -145 0
-148 756 0
-148 145 0
149 -28 -20 0
-149 28 0
-149 20 0
150 -149 -757 0
-150 149 0
-150 757 0
151 -758 -148 0
-151 758 0
-151 148 0
152 -759 -717 0
-152 759 0
-152 717 0
153 -152 -37 0
-153 152 0
-153 37 0
154 -760 -151 0
-154 760 0
-154 151 0
155 -46 -9 0
-155 46 0
-155 9 0
156 -155 -19 0
-156 155 0
-156 19 0
157 -761 -154 0
-157 761 0
-157 154 0
158 -32 -10 0
-158 32 0
-158 10 0
159 -158 -13 0
-159 158 0
-159 13 0
160 -762 -157 0
-160 762 0
-160 157 0
161 -732 -763 0
-161 732 0
-161 763 0
162 -161 -764 0
-162 161 0
-162 764 0
163 -765 -160 0
-163 765 0
-163 160 0
164 -751 -22 0
-164 751 0
-164 22 0
165 -164 -16 0
-165 164 0
-165 16 0
166 -766 -163 0
-166 766 0
-166 163 0
167 -20 -6 0
-167 20 0
-167 6 0
168 -167 -35 0
-168 167 0
-168 35 0
169 -767 -166 0
-169 767 0
-169 166 0
170 -768 -769 0
-170 768 0
-170 769 0
171 -170 -703 0
-171 170 0
-171 703 0
172 -770 -169 0
-172 770 0
-172 169 0
173 -38 -21 0
-173 38 0
-173 21 0
174 -173 -726 0
-174 173 0
-174 726 0
175 -771 -172 0
-175 771 0
-175 172 0
176 -772 -773 0
-176 772 0
-176 773 0
177 -176 -774 0
-177 176 0
-177 774 0
178 -775 -175 0
-178 775 0
-178 175 0
179 -713 -9 0
-179 713 0
-179 9 0
180 -179 -776 0
-180 179 0
-180 776 0
181 -777 -178 0
-181 777 0
-181 178 0
182 -778 -29 0
-182 778 0
-182 29 0
183 -182 -769 0
-183 182 0
-183 769 0
184 -779 -181 0
-184 779 0
-184 181 0
185 -759 -24 0
-185 759 0
-185 24 0
186 -185 -705 0
-186 185 0
-186 705 0
187 -780 -184 0
-187 780 0
-187 184 0
188 -781 -12 0
-188 781 0
-188 12 0
189 -188 -708 0
-189 188 0
-189 708 0
190 -782 -187 0
-190 782 0
-190 187 0
191 -44 -9 0
-191 44 0
-191 9 0
192 -191 -746 0
-192 191 0
-192 746 0
193 -783 -190 0
-193 783 0
-193 190 0
194 -22 -10 0
-194 22 0
-194 10 0
195 -194 -8 0
-195 194 0
-195 8 0
196 -784 -193 0
-196 784 0
-196 193 0
197 -39 -23 0
-197 39 0
-197 23 0
198 -197 -776 0
-198 197 0
-198 776 0
199 -785 -196 0
-199 785 0
-199 196 0
200 -786 -12 0
-200 786 0
-200 12 0
201 -200 -776 0
-201 200 0
-201 776 0
202 -787 -199 0
-202 787 0
-202 199 0
203 -37 -773 0
-203 37 0
-203 773 0
204 -203 -703 0
-204 203 0
-204 703 0
205 -788 -202 0
-205 788 0
-205 202 0
206 -742 -26 0
-206 742 0
-206 26 0
207 -206 -11 0
-207 206 0
-207 11 0
208 -789 -205 0
-208 789 0
-208 205 0
209 -701 -698 0
-209 701 0
-209 698 0
210 -209 -776 0
-210 209 0
-210 776 0
211 -790 -208 0
-211 790 0
-211 208 0
212 -38 -11 0
-212 38 0
-212 11 0
213 -212 -707 0
-213 212 0
-213 707 0
214 -791 -211 0
-214 791 0
-214 211 0
215 -101 -44 0
-215 101 0
-215 44 0
216 -792 -214 0
-216 792 0
-216 214 0
217 -48 -12 0
-217 48 0
-217 12 0
218 -217 -740 0
-218 217 0
-218 740 0
219 -793 -216 0
-219 793 0
-219 216 0
220 -759 -701 0
-220 759 0
-220 701 0
221 -220 -13 0
-221 220 0
-221 13 0
222 -794 -219 0
-222 794 0
-222 219 0
223 -49 -705 0
-223 49 0
-223 705 0
224 -223 -795 0
-224 223 0
-224 795 0
225 -796 -222 0
-225 796 0
-225 222 0
226 -728 -32 0
-226 728 0
-226 32 0
227 -226 -11 0
-227 226 0
-227 11 0
228 -797 -225 0
-228 797 0
-228 225 0
229 -751 -1 0
-229 751 0
-229 1 0
230 -229 -6 0
-230 229 0
-230 6 0
231 -798 -228 0
-231 798 0
-231 228 0
232 -47 -799 0
-232 47 0
-232 799 0
233 -232 -11 0
-233 232 0
-233 11 0
234 -800 -231 0
-234 800 0
-234 231 0
235 -801 -721 0
-235 801 0
-235 721 0
236 -235 -769 0
-236 235 0
-236 769 0
237 -802 -234 0
-237 802 0
-237 234 0
238 -778 -781 0
-238 778 0
-238 781 0
239 -238 -9 0
-239 238 0
-239 9 0
240 -803 -237 0
-240 803 0
-240 237 0
241 -31 -12 0
-241 31 0
-241 12 0
242 -241 -13 0
-242 241 0
-242 13 0
243 -804 -240 0
-243 804 0
-243 240 0
244 -28 -4 0
-244 28 0
-244 4 0
245 -244 -735 0
-245 244 0
-245 735 0
246 -805 -243 0
-246 805 0
-246 243 0
247 -45 -731 0
-247 45 0
-247 731 0
248 -247 -42 0
-248 247 0
-248 42 0
249 -806 -246 0
-249 806 0
-249 246 0
250 -158 -42 0
-250 158 0
-250 42 0
251 -807 -249 0
-251 807 0
-251 249 0
252 -808 -728 0
-252 808 0
-252 728 0
253 -252 -726 0
-253 252 0
-253 726 0
254 -809 -251 0
-254 809 0
-254 251 0
255 -50 -702 0
-255 50 0
-255 702 0
256 -255 -13 0
-256 255 0
-256 13 0
257 -810 -254 0
-257 810 0
-257 254 0
258 -45 -10 0
-258 45 0
-258 10 0
259 -258 -3 0
-259 258 0
-259 3 0
260 -811 -257 0
-260 811 0
-260 257 0
261 -778 -25 0
-261 778 0
-261 25 0
262 -261 -31 0
-262 261 0
-262 31 0
263 -812 -260 0
-263 812 0
-263 260 0
264 -41 -39 0
-264 41 0
-264 39 0
265 -264 -742 0
-265 264 0
-265 742 0
266 -813 -263 0
-266 813 0
-266 263 0
267 -44 -728 0
-267 44 0
-267 728 0
268 -267 -7 0
-268 267 0
-268 7 0
269 -814 -266 0
-269 814 0
-269 266 0
270 -18 -697 0
-270 18 0
-270 697 0
271 -270 -25 0
-271 270 0
-271 25 0
272 -815 -269 0
-272 815 0
-272 269 0
273 -30 -769 0
-273 30 0
-273 769 0
274 -273 -16 0
-274 273 0
-274 16 0
275 -816 -272 0
-275 816 0
-275 272 0
276 -28 -773 0
-276 28 0
-276 773 0
277 -276 -33 0
-277 276 0
-277 33 0
278 -817 -275 0
-278 817 0
-278 275 0
279 -753 -818 0
-279 753 0
-279 818 0
280 -279 -707 0
-280 279 0
-280 707 0
281 -819 -278 0
-281 819 0
-281 278 0
282 -46 -801 0
-282 46 0
-282 801 0
283 -282 -30 0
-283 282 0
-283 30 0
284 -820 -281 0
-284 820 0
-284 281 0
285 -713 -8 0
-285 713 0
-285 8 0
286 -285 -795 0
-286 285 0
-286 795 0
287 -821 -284 0
-287 821 0
-287 284 0
288 -34 -781 0
-288 34 0
-288 781 0
289 -288 -32 0
-289 288 0
-289 32 0
290 -822 -287 0
-290 822 0
-290 287 0
291 -26 -711 0
-291 26 0
-291 711 0
292 -291 -740 0
-292 291 0
-292 740 0
293 -823 -290 0
-293 823 0
-293 290 0
294 -751 -781 0
-294 751 0
-294 781 0
295 -294 -35 0
-295 294 0
-295 35 0
296 -824 -293 0
-296 824 0
-296 293 0
297 -825 -698 0
-297 825 0
-297 698 0
298 -297 -10 0
-298 297 0
-298 10 0
299 -826 -296 0
-299 826 0
-299 296 0
300 -751 -18 0
-300 751 0
-300 18 0
301 -300 -44 0
-301 300 0
-301 44 0
302 -827 -299 0
-302 827 0
-302 299 0
303 -751 -753 0
-303 751 0
-303 753 0
304 -303 -16 0
-304 303 0
-304 16 0
305 -828 -302 0
-305 828 0
-305 302 0
306 -7 -734 0
-306 7 0
-306 734 0
307 -306 -708 0
-307 306 0
-307 708 0
308 -829 -305 0
-308 829 0
-308 305 0
309 -17 -6 0
-309 17 0
-309 6 0
310 -309 -830 0
-310 309 0
-310 830 0
311 -831 -308 0
-311 831 0
-311 308 0
312 -37 -711 0
-312 37 0
-312 711 0
313 -312 -742 0
-313 312 0
-313 742 0
314 -832 -311 0
-314 832 0
-314 311 0
315 -45 -34 0
-315 45 0
-315 34 0
316 -315 -729 0
-316 315 0
-316 729 0
317 -833 -314 0
-317 833 0
-317 314 0
318 -33 -27 0
-318 33 0
-318 27 0
319 -318 -3 0
-319 318 0
-319 3 0
320 -834 -317 0
-320 834 0
-320 317 0
321 -48 -44 0
-321 48 0
-321 44 0
322 -321 -786 0
-322 321 0
-322 786 0
323 -835 -320 0
-323 835 0
-323 320 0
324 -778 -721 0
-324 778 0
-324 721 0
325 -324 -46 0
-325 324 0
-325 46 0
326 -836 -323 0
-326 836 0
-326 323 0
327 -48 -781 0
-327 48 0
-327 781 0
328 -327 -742 0
-328 327 0
-328 742 0
329 -837 -326 0
-329 837 0
-329 326 0
330 -776 -26 0
-330 776 0
-330 26 0
331 -330 -16 0
-331 330 0
-331 16 0
332 -838 -329 0
-332 838 0
-332 329 0
333 -732 -21 0
-333 732 0
-333 21 0
334 -333 -30 0
-334 333 0
-334 30 0
335 -839 -332 0
-335 839 0
-335 332 0
336 -43 -773 0
-336 43 0
-336 773 0
337 -336 -746 0
-337 336 0
-337 746 0
338 -840 -335 0
-338 840 0
-338 335 0
339 -49 -46 0
-339 49 0
-339 46 0
340 -339 -5 0
-340 339 0
-340 5 0
341 -841 -338 0
-341 841 0
-341 338 0
342 -50 -2 0
-342 50 0
-342 2 0
343 -342 -7 0
-343 342 0
-343 7 0
344 -842 -341 0
-344 842 0
-344 341 0
345 -799 -698 0
-345 799 0
-345 698 0
346 -345 -19 0
-346 345 0
-346 19 0
347 -843 -344 0
-347 843 0
-347 344 0
348 -23 -818 0
-348 23 0
-348 818 0
349 -348 -707 0
-349 348 0
-349 707 0
350 -844 -347 0
-350 844 0
-350 347 0
351 -47 -35 0
-351 47 0
-351 35 0
352 -351 -16 0
-352 351 0
-352 16 0
353 -845 -350 0
-353 845 0
-353 350 0
354 -768 -37 0
-354 768 0
-354 37 0
355 -354 -43 0
-355 354 0
-355 43 0
356 -846 -353 0
-356 846 0
-356 353 0
357 -731 -21 0
-357 731 0
-357 21 0
358 -357 -799 0
-358 357 0
-358 799 0
359 -847 -356 0
-359 847 0
-359 356 0
360 -50 -759 0
-360 50 0
-360 759 0
361 -360 -24 0
-361 360 0
-361 24 0
362 -848 -359 0
-362 848 0
-362 359 0
363 -47 -786 0
-363 47 0
-363 786 0
364 -363 -19 0
-364 363 0
-364 19 0
365 -849 -362 0
-365 849 0
-365 362 0
366 -50 -740 0
-366 50 0
-366 740 0
367 -366 -19 0
-367 366 0
-367 19 0
368 -850 -365 0
-368 850 0
-368 365 0
369 -772 -703 0
-369 772 0
-369 703 0
370 -369 -851 0
-370 369 0
-370 851 0
371 -852 -368 0
-371 852 0
-371 368 0
372 -739 -23 0
-372 739 0
-372 23 0
373 -372 -746 0
-373 372 0
-373 746 0
374 -853 -371 0
-374 853 0
-374 371 0
375 -781 -698 0
-375 781 0
-375 698 0
376 -375 -43 0
-376 375 0
-376 43 0
377 -854 -374 0
-377 854 0
-377 374 0
378 -778 -729 0
-378 778 0
-378 729 0
379 -378 -726 0
-379 378 0
-379 726 0
380 -855 -377 0
-380 855 0
-380 377 0
381 -732 -34 0
-381 732 0
-381 34 0
382 -381 -742 0
-382 381 0
-382 742 0
383 -856 -380 0
-383 856 0
-383 380 0
384 -776 -6 0
-384 776 0
-384 6 0
385 -384 -13 0
-385 384 0
-385 13 0
386 -857 -383 0
-386 857 0
-386 383 0
387 -739 -21 0
-387 739 0
-387 21 0
388 -387 -30 0
-388 387 0
-388 30 0
389 -858 -386 0
-389 858 0
-389 386 0
390 -713 -17 0
-390 713 0
-390 17 0
391 -390 -768 0
-391 390 0
-391 768 0
392 -859 -389 0
-392 859 0
-392 389 0
393 -759 -41 0
-393 759 0
-393 41 0
394 -393 -786 0
-394 393 0
-394 786 0
395 -860 -392 0
-395 860 0
-395 392 0
396 -772 -9 0
-396 772 0
-396 9 0
397 -396 -764 0
-397 396 0
-397 764 0
398 -861 -395 0
-398 861 0
-398 395 0
399 -46 -757 0
-399 46 0
-399 757 0
400 -399 -708 0
-400 399 0
-400 708 0
401 -862 -398 0
-401 862 0
-401 398 0
402 -721 -830 0
-402 721 0
-402 830 0
403 -402 -40 0
-403 402 0
-403 40 0
404 -863 -401 0
-404 863 0
-404 401 0
405 -264 -42 0
-405 264 0
-405 42 0
406 -864 -404 0
-406 864 0
-406 404 0
407 -757 -41 0
-407 757 0
-407 41 0
408 -407 -16 0
-408 407 0
-408 16 0
409 -865 -406 0
-409 865 0
-409 406 0
410 -14 -697 0
-410 14 0
-410 697 0
411 -410 -735 0
-411 410 0
-411 735 0
412 -866 -409 0
-412 866 0
-412 409 0
413 -28 -867 0
-413 28 0
-413 867 0
414 -413 -32 0
-414 413 0
-414 32 0
415 -868 -412 0
-415 868 0
-415 412 0
416 -44 -29 0
-416 44 0
-416 29 0
417 -416 -47 0
-417 416 0
-417 47 0
418 -869 -415 0
-418 869 0
-418 415 0
419 -38 -721 0
-419 38 0
-419 721 0
420 -419 -25 0
-420 419 0
-420 25 0
421 -870 -418 0
-421 870 0
-421 418 0
422 -711 -4 0
-422 711 0
-422 4 0
423 -422 -34 0
-423 422 0
-423 34 0
424 -871 -421 0
-424 871 0
-424 421 0
425 -402 -872 0
-425 402 0
-425 872 0
426 -873 -424 0
-426 873 0
-426 424 0
427 -37 -34 0
-427 37 0
-427 34 0
428 -427 -768 0
-428 427 0
-428 768 0
429 -874 -426 0
-429 874 0
-429 426 0
430 -751 -769 0
-430 751 0
-430 769 0
431 -430 -13 0
-431 430 0
-431 13 0
432 -875 -429 0
-432 875 0
-432 429 0
433 -772 -7 0
-433 772 0
-433 7 0
434 -433 -42 0
-434 433 0
-434 42 0
435 -876 -432 0
-435 876 0
-435 432 0
436 -799 -776 0
-436 799 0
-436 776 0
437 -436 -19 0
-437 436 0
-437 19 0
438 -877 -435 0
-438 877 0
-438 435 0
439 -42 -13 0
-439 42 0
-439 13 0
440 -439 -764 0
-440 439 0
-440 764 0
441 -878 -438 0
-441 878 0
-441 438 0
442 -43 -34 0
-442 43 0
-442 34 0
443 -442 -774 0
-443 442 0
-443 774 0
444 -879 -441 0
-444 879 0
-444 441 0
445 -799 -757 0
-445 799 0
-445 757 0
446 -445 -707 0
-446 445 0
-446 707 0
447 -880 -444 0
-447 880 0
-447 444 0
448 -45 -44 0
-448 45 0
-448 44 0
449 -448 -46 0
-449 448 0
-449 46 0
450 -881 -447 0
-450 881 0
-450 447 0
451 -726 -830 0
-451 726 0
-451 830 0
452 -451 -43 0
-452 451 0
-452 43 0
453 -882 -450 0
-453 882 0
-453 450 0
454 -778 -33 0
-454 778 0
-454 33 0
455 -454 -786 0
-455 454 0
-455 786 0
456 -883 -453 0
-456 883 0
-456 453 0
457 -49 -711 0
-457 49 0
-457 711 0
458 -457 -33 0
-458 457 0
-458 33 0
459 -884 -456 0
-459 884 0
-459 456 0
460 -768 -43 0
-460 768 0
-460 43 0
461 -460 -872 0
-461 460 0
-461 872 0
462 -885 -459 0
-462 885 0
-462 459 0
463 -48 -713 0
-463 48 0
-463 713 0
464 -463 -13 0
-464 463 0
-464 13 0
465 -886 -462 0
-465 886 0
-465 462 0
466 -38 -729 0
-466 38 0
-466 729 0
467 -466 -9 0
-467 466 0
-467 9 0
468 -887 -465 0
-468 887 0
-468 465 0
469 -48 -739 0
-469 48 0
-469 739 0
470 -469 -764 0
-470 469 0
-470 764 0
471 -888 -468 0
-471 888 0
-471 468 0
472 -28 -2 0
-472 28 0
-472 2 0
473 -472 -734 0
-473 472 0
-473 734 0
474 -889 -471 0
-474 889 0
-474 471 0
475 -40 -772 0
-475 40 0
-475 772 0
476 -475 -708 0
-476 475 0
-476 708 0
477 -890 -474 0
-477 890 0
-477 474 0
478 -742 -721 0
-478 742 0
-478 721 0
479 -478 -25 0
-479 478 0
-479 25 0
480 -891 -477 0
-480 891 0
-480 477 0
481 -757 -39 0
-481 757 0
-481 39 0
482 -481 -40 0
-482 481 0
-482 40 0
483 -892 -480 0
-483 892 0
-483 480 0
484 -721 -713 0
-484 721 0
-484 713 0
485 -484 -751 0
-485 484 0
-485 751 0
486 -893 -483 0
-486 893 0
-486 483 0
487 -21 -781 0
-487 21 0
-487 781 0
488 -487 -39 0
-488 487 0
-488 39 0
489 -894 -486 0
-489 894 0
-489 486 0
490 -28 -12 0
-490 28 0
-490 12 0
491 -490 -9 0
-491 490 0
-491 9 0
492 -895 -489 0
-492 895 0
-492 489 0
493 -185 -39 0
-493 185 0
-493 39 0
494 -896 -492 0
-494 896 0
-494 492 0
495 -772 -867 0
-495 772 0
-495 867 0
496 -495 -768 0
-496 495 0
-496 768 0
497 -897 -494 0
-497 897 0
-497 494 0
498 -33 -867 0
-498 33 0
-498 867 0
499 -498 -22 0
-499 498 0
-499 22 0
500 -898 -497 0
-500 898 0
-500 497 0
501 -45 -22 0
-501 45 0
-501 22 0
502 -501 -26 0
-502 501 0
-502 26 0
503 -899 -500 0
-503 899 0
-503 500 0
504 -778 -14 0
-504 778 0
-504 14 0
505 -504 -707 0
-505 504 0
-505 707 0
506 -900 -503 0
-506 900 0
-506 503 0
507 -48 -742 0
-507 48 0
-507 742 0
508 -507 -46 0
-508 507 0
-508 46 0
509 -901 -506 0
-509 901 0
-509 506 0
510 -713 -711 0
-510 713 0
-510 711 0
511 -510 -46 0
-511 510 0
-511 46 0
512 -902 -509 0
-512 902 0
-512 509 0
513 -44 -703 0
-513 44 0
-513 703 0
514 -513 -795 0
-514 513 0
-514 795 0
515 -903 -512 0
-515 903 0
-515 512 0
516 -33 -702 0
-516 33 0
-516 702 0
517 -516 -40 0
-517 516 0
-517 40 0
518 -904 -515 0
-518 904 0
-518 515 0
519 -20 -702 0
-519 20 0
-519 702 0
520 -519 -851 0
-520 519 0
-520 851 0
521 -905 -518 0
-521 905 0
-521 518 0
522 -12 -11 0
-522 12 0
-522 11 0
523 -522 -15 0
-523 522 0
-523 15 0
524 -906 -521 0
-524 906 0
-524 521 0
525 -768 -702 0
-525 768 0
-525 702 0
526 -525 -746 0
-526 525 0
-526 746 0
527 -907 -524 0
-527 907 0
-527 524 0
528 -768 -34 0
-528 768 0
-528 34 0
529 -528 -19 0
-529 528 0
-529 19 0
530 -908 -527 0
-530 908 0
-530 527 0
531 -38 -37 0
-531 38 0
-531 37 0
532 -531 -818 0
-532 531 0
-532 818 0
533 -909 -530 0
-533 909 0
-533 530 0
534 -36 -717 0
-534 36 0
-534 717 0
535 -534 -39 0
-535 534 0
-535 39 0
536 -910 -533 0
-536 910 0
-536 533 0
537 -751 -776 0
-537 751 0
-537 776 0
538 -537 -799 0
-538 537 0
-538 799 0
539 -911 -536 0
-539 911 0
-539 536 0
540 -799 -705 0
-540 799 0
-540 705 0
541 -540 -708 0
-541 540 0
-541 708 0
542 -912 -539 0
-542 912 0
-542 539 0
543 -48 -33 0
-543 48 0
-543 33 0
544 -543 -801 0
-544 543 0
-544 801 0
545 -913 -542 0
-545 913 0
-545 542 0
546 -21 -18 0
-546 21 0
-546 18 0
547 -546 -726 0
-547 546 0
-547 726 0
548 -914 -545 0
-548 914 0
-548 545 0
549 -774 -19 0
-549 774 0
-549 19 0
550 -549 -15 0
-550 549 0
-550 15 0
551 -915 -548 0
-551 915 0
-551 548 0
552 -731 -763 0
-552 731 0
-552 763 0
553 -552 -701 0
-553 552 0
-553 701 0
554 -916 -551 0
-554 916 0
-554 551 0
555 -38 -35 0
-555 38 0
-555 35 0
556 -555 -735 0
-556 555 0
-556 735 0
557 -917 -554 0
-557 917 0
-557 554 0
558 -721 -702 0
-558 721 0
-558 702 0
559 -558 -734 0
-559 558 0
-559 734 0
560 -918 -557 0
-560 918 0
-560 557 0
561 -38 -830 0
-561 38 0
-561 830 0
562 -561 -801 0
-562 561 0
-562 801 0
563 -919 -560 0
-563 919 0
-563 560 0
564 -748 -22 0
-564 748 0
-564 22 0
565 -564 -12 0
-565 564 0
-565 12 0
566 -920 -563 0
-566 920 0
-566 563 0
567 -24 -1 0
-567 24 0
-567 1 0
568 -567 -31 0
-568 567 0
-568 31 0
569 -921 -566 0
-569 921 0
-569 566 0
570 -11 -1 0
-570 11 0
-570 1 0
571 -570 -13 0
-571 570 0
-571 13 0
572 -922 -569 0
-572 922 0
-572 569 0
573 -742 -31 0
-573 742 0
-573 31 0
574 -573 -795 0
-574 573 0
-574 795 0
575 -923 -572 0
-575 923 0
-575 572 0
576 -45 -27 0
-576 45 0
-576 27 0
577 -576 -13 0
-577 576 0
-577 13 0
578 -924 -575 0
-578 924 0
-578 575 0
579 -49 -47 0
-579 49 0
-579 47 0
580 -579 -795 0
-580 579 0
-580 795 0
581 -925 -578 0
-581 925 0
-581 578 0
582 -825 -729 0
-582 825 0
-582 729 0
583 -582 -3 0
-583 582 0
-583 3 0
584 -926 -581 0
-584 926 0
-584 581 0
585 -769 -702 0
-585 769 0
-585 702 0
586 -585 -13 0
-586 585 0
-586 13 0
587 -927 -584 0
-587 927 0
-587 584 0
588 -781 -753 0
-588 781 0
-588 753 0
589 -588 -40 0
-589 588 0
-589 40 0
590 -928 -587 0
-590 928 0
-590 587 0
591 -872 -20 0
-591 872 0
-591 20 0
592 -591 -30 0
-592 591 0
-592 30 0
593 -929 -590 0
-593 929 0
-593 590 0
594 -731 -12 0
-594 731 0
-594 12 0
595 -594 -742 0
-595 594 0
-595 742 0
596 -930 -593 0
-596 930 0
-596 593 0
597 -751 -698 0
-597 751 0
-597 698 0
598 -597 -705 0
-598 597 0
-598 705 0
599 -931 -596 0
-599 931 0
-599 596 0
600 -34 -786 0
-600 34 0
-600 786 0
601 -600 -776 0
-601 600 0
-601 776 0
602 -932 -599 0
-602 932 0
-602 599 0
603 -44 -697 0
-603 44 0
-603 697 0
604 -603 -10 0
-604 603 0
-604 10 0
605 -933 -602 0
-605 933 0
-605 602 0
606 -282 -740 0
-606 282 0
-606 740 0
607 -934 -605 0
-607 934 0
-607 605 0
608 -28 -23 0
-608 28 0
-608 23 0
609 -608 -16 0
-609 608 0
-609 16 0
610 -935 -607 0
-610 935 0
-610 607 0
611 -739 -20 0
-611 739 0
-611 20 0
612 -611 -773 0
-612 611 0
-612 773 0
613 -936 -610 0
-613 936 0
-613 610 0
614 -20 -711 0
-614 20 0
-614 711 0
615 -614 -42 0
-615 614 0
-615 42 0
616 -937 -613 0
-616 937 0
-616 613 0
617 -772 -728 0
-617 772 0
-617 728 0
618 -617 -23 0
-618 617 0
-618 23 0
619 -938 -616 0
-619 938 0
-619 616 0
620 -22 -17 0
-620 22 0
-620 17 0
621 -620 -764 0
-621 620 0
-621 764 0
622 -939 -619 0
-622 939 0
-622 619 0
623 -757 -17 0
-623 757 0
-623 17 0
624 -623 -16 0
-624 623 0
-624 16 0
625 -940 -622 0
-625 940 0
-625 622 0
626 -772 -35 0
-626 772 0
-626 35 0
627 -626 -25 0
-627 626 0
-627 25 0
628 -941 -625 0
-628 941 0
-628 625 0
629 -759 -27 0
-629 759 0
-629 27 0
630 -629 -3 0
-630 629 0
-630 3 0
631 -942 -628 0
-631 942 0
-631 628 0
632 -33 -715 0
-632 33 0
-632 715 0
633 -632 -13 0
-633 632 0
-633 13 0
634 -943 -631 0
-634 943 0
-634 631 0
635 -50 -728 0
-635 50 0
-635 728 0
636 -635 -26 0
-636 635 0
-636 26 0
637 -944 -634 0
-637 944 0
-637 634 0
638 -36 -713 0
-638 36 0
-638 713 0
639 -638 -30 0
-639 638 0
-639 30 0
640 -945 -637 0
-640 945 0
-640 637 0
641 -739 -818 0
-641 739 0
-641 818 0
642 -641 -776 0
-642 641 0
-642 776 0
643 -946 -640 0
-643 946 0
-643 640 0
644 -825 -38 0
-644 825 0
-644 38 0
645 -644 -774 0
-645 644 0
-645 774 0
646 -947 -643 0
-646 947 0
-646 643 0
647 -12 -3 0
-647 12 0
-647 3 0
648 -647 -16 0
-648 647 0
-648 16 0
649 -948 -646 0
-649 948 0
-649 646 0
650 -772 -711 0
-650 772 0
-650 711 0
651 -650 -30 0
-651 650 0
-651 30 0
652 -949 -649 0
-652 949 0
-652 649 0
653 -29 -697 0
-653 29 0
-653 697 0
654 -653 -774 0
-654 653 0
-654 774 0
655 -950 -652 0
-655 950 0
-655 652 0
656 -37 -36 0
-656 37 0
-656 36 0
657 -656 -47 0
-657 656 0
-657 47 0
658 -951 -655 0
-658 951 0
-658 655 0
659 -715 -851 0
-659 715 0
-659 851 0
660 -659 -5 0
-660 659 0
-660 5 0
661 -952 -658 0
-661 952 0
-661 658 0
662 -746 -701 0
-662 746 0
-662 701 0
663 -662 -774 0
-663 662 0
-663 774 0
664 -953 -661 0
-664 953 0
-664 661 0
665 -731 -37 0
-665 731 0
-665 37 0
666 -665 -10 0
-666 665 0
-666 10 0
667 -954 -664 0
-667 954 0
-667 664 0
668 -19 -703 0
-668 19 0
-668 703 0
669 -668 -13 0
-669 668 0
-669 13 0
670 -955 -667 0
-670 955 0
-670 667 0
671 -498 -30 0
-671 498 0
-671 30 0
672 -956 -670 0
-672 956 0
-672 670 0
673 -731 -32 0
-673 731 0
-673 32 0
674 -673 -23 0
-674 673 0
-674 23 0
675 -957 -672 0
-675 957 0
-675 672 0
676 -49 -22 0
-676 49 0
-676 22 0
677 -676 -8 0
-677 676 0
-677 8 0
678 -958 -675 0
-678 958 0
-678 675 0
679 -26 -17 0
-679 26 0
-679 17 0
680 -679 -740 0
-680 679 0
-680 740 0
681 -959 -678 0
-681 959 0
-681 678 0
682 -825 -35 0
-682 825 0
-682 35 0
683 -682 -734 0
-683 682 0
-683 734 0
684 -960 -681 0
-684 960 0
-684 681 0
685 -48 -10 0
-685 48 0
-685 10 0
686 -685 -16 0
-686 685 0
-686 16 0
687 -961 -684 0
-687 961 0
-687 684 0
688 -808 -21 0
-688 808 0
-688 21 0
689 -688 -4 0
-689 688 0
-689 4 0
690 -962 -687 0
-690 962 0
-690 687 0
691 -50 -715 0
-691 50 0
-691 715 0
692 -691 -13 0
-692 691 0
-692 13 0
693 -963 -690 0
-693 963 0
-693 690 0
694 -48 -697 0
-694 48 0
-694 697 0
695 -694 -31 0
-695 694 0
-695 31 0
696 -964 -693 0
-696 964 0
-696 693 0
-697 -4 0
697 4 0
-698 -1 0
698 1 0
-699 -54 0
699 54 0
-700 -52 0
700 52 0
-701 -7 0
701 7 0
-702 -6 0
702 6 0
-703 -8 0
703 8 0
-704 -57 0
704 57 0
-705 -11 0
705 11 0
-706 -60 0
706 60 0
-707 -13 0
707 13 0
-708 -5 0
708 5 0
-709 -63 0
709 63 0
-710 -66 0
710 66 0
-711 -17 0
711 17 0
-712 -69 0
712 69 0
-713 -21 0
713 21 0
-714 -72 0
714 72 0
-715 -23 0
715 23 0
-716 -75 0
716 75 0
-717 -24 0
717 24 0
-718 -78 0
718 78 0
-719 -81 0
719 81 0
-720 -84 0
720 84 0
-721 -29 0
721 29 0
-722 -87 0
722 87 0
-723 -90 0
723 90 0
-724 -93 0
724 93 0
-725 -96 0
725 96 0
-726 -35 0
726 35 0
-727 -99 0
727 99 0
-728 -36 0
728 36 0
-729 -22 0
729 22 0
-730 -102 0
730 102 0
-731 -38 0
731 38 0
-732 -39 0
732 39 0
-733 -105 0
733 105 0
-734 -3 0
734 3 0
-735 -19 0
735 19 0
-736 -108 0
736 108 0
-737 -111 0
737 111 0
-738 -114 0
738 114 0
-739 -28 0
739 28 0
-740 -40 0
740 40 0
-741 -117 0
741 117 0
-742 -43 0
742 43 0
-743 -120 0
743 120 0
-744 -123 0
744 123 0
-745 -126 0
745 126 0
-746 -27 0
746 27 0
-747 -129 0
747 129 0
-748 -34 0
748 34 0
-749 -132 0
749 132 0
-750 -135 0
750 135 0
-751 -32 0
751 32 0
-752 -138 0
752 138 0
-753 -10 0
753 10 0
-754 -141 0
754 141 0
-755 -144 0
755 144 0
-756 -147 0
756 147 0
-757 -44 0
757 44 0
-758 -150 0
758 150 0
-759 -45 0
759 45 0
-760 -153 0
760 153 0
-761 -156 0
761 156 0
-762 -159 0
762 159 0
-763 -33 0
763 33 0
-764 -30 0
764 30 0
-765 -162 0
765 162 0
-766 -165 0
766 165 0
-767 -168 0
767 168 0
-768 -47 0
768 47 0
-769 -9 0
769 9 0
-770 -171 0
770 171 0
-771 -174 0
771 174 0
-772 -37 0
772 37 0
-773 -14 0
773 14 0
-774 -26 0
774 26 0
-775 -177 0
775 177 0
-776 -31 0
776 31 0
-777 -180 0
777 180 0
-778 -48 0
778 48 0
-779 -183 0
779 183 0
-780 -186 0
780 186 0
-781 -18 0
781 18 0
-782 -189 0
782 189 0
-783 -192 0
783 192 0
-784 -195 0
784 195 0
-785 -198 0
785 198 0
-786 -25 0
786 25 0
-787 -201 0
787 201 0
-788 -204 0
788 204 0
-789 -207 0
789 207 0
-790 -210 0
790 210 0
-791 -213 0
791 213 0
-792 -215 0
792 215 0
-793 -218 0
793 218 0
-794 -221 0
794 221 0
-795 -16 0
795 16 0
-796 -224 0
796 224 0
-797 -227 0
797 227 0
-798 -230 0
798 230 0
-799 -46 0
799 46 0
-800 -233 0
800 233 0
-801 -41 0
801 41 0
-802 -236 0
802 236 0
-803 -239 0
803 239 0
-804 -242 0
804 242 0
-805 -245 0
805 245 0
-806 -248 0
806 248 0
-807 -250 0
807 250 0
-808 -50 0
808 50 0
-809 -253 0
809 253 0
-810 -256 0
810 256 0
-811 -259 0
811 259 0
-812 -262 0
812 262 0
-813 -265 0
813 265 0
-814 -268 0
814 268 0
-815 -271 0
815 271 0
-816 -274 0
816 274 0
-817 -277 0
817 277 0
-818 -2 0
818 2 0
-819 -280 0
819 280 0
-820 -283 0
820 283 0
-821 -286 0
821 286 0
-822 -289 0
822 289 0
-823 -292 0
823 292 0
-824 -295 0
824 295 0
-825 -49 0
825 49 0
-826 -298 0
826 298 0
-827 -301 0
827 301 0
-828 -304 0
828 304 0
-829 -307 0
829 307 0
-830 -12 0
830 12 0
-831 -310 0
831 310 0
-832 -313 0
832 313 0
-833 -316 0
833 316 0
-834 -319 0
834 319 0
-835 -322 0
835 322 0
-836 -325 0
836 325 0
-837 -328 0
837 328 0
-838 -331 0
838 331 0
-839 -334 0
839 334 0
-840 -337 0
840 337 0
-841 -340 0
841 340 0
-842 -343 0
842 343 0
-843 -346 0
843 346 0
-844 -349 0
844 349 0
-845 -352 0
845 352 0
-846 -355 0
846 355 0
-847 -358 0
847 358 0
-848 -361 0
848 361 0
-849 -364 0
849 364 0
-850 -367 0
850 367 0
-851 -15 0
851 15 0
-852 -370 0
852 370 0
-853 -373 0
853 373 0
-854 -376 0
854 376 0
-855 -379 0
855 379 0
-856 -382 0
856 382 0
-857 -385 0
857 385 0
-858 -388 0
858 388 0
-859 -391 0
859 391 0
-860 -394 0
860 394 0
-861 -397 0
861 397 0
-862 -400 0
862 400 0
-863 -403 0
863 403 0
-864 -405 0
864 405 0
-865 -408 0
865 408 0
-866 -411 0
866 411 0
-867 -20 0
867 20 0
-868 -414 0
868 414 0
-869 -417 0
869 417 0
-870 -420 0
870 420 0
-871 -423 0
871 423 0
-872 -42 0
872 42 0
-873 -425 0
873 425 0
-874 -428 0
874 428 0
-875 -431 0
875 431 0
-876 -434 0
876 434 0
-877 -437 0
877 437 0
-878 -440 0
878 440 0
-879 -443 0
879 443 0
-880 -446 0
880 446 0
-881 -449 0
881 449 0
-882 -452 0
882 452 0
-883 -455 0
883 455 0
-884 -458 0
884 458 0
-885 -461 0
885 461 0
-886 -464 0
886 464 0
-887 -467 0
887 467 0
-888 -470 0
888 470 0
-889 -473 0
889 473 0
-890 -476 0
890 476 0
-891 -479 0
891 479 0
-892 -482 0
892 482 0
-893 -485 0
893 485 0
-894 -488 0
894 488 0
-895 -491 0
895 491 0
-896 -493 0
896 493 0
-897 -496 0
897 496 0
-898 -499 0
898 499 0
-899 -502 0
899 502 0
-900 -505 0
900 505 0
-901 -508 0
901 508 0
-902 -511 0
902 511 0
-903 -514 0
903 514 0
-904 -517 0
904 517 0
-905 -520 0
905 520 0
-906 -523 0
906 523 0
-907 -526 0
907 526 0
-908 -529 0
908 529 0
-909 -532 0
909 532 0
-910 -535 0
910 535 0
-911 -538 0
911 538 0
-912 -541 0
912 541 0
-913 -544 0
913 544 0
-914 -547 0
914 547 0
-915 -550 0
915 550 0
-916 -553 0
916 553 0
-917 -556 0
917 556 0
-918 -559 0
918 559 0
-919 -562 0
919 562 0
-920 -565 0
920 565 0
-921 -568 0
921 568 0
-922 -571 0
922 571 0
-923 -574 0
923 574 0
-924 -577 0
924 577 0
-925 -580 0
925 580 0
-926 -583 0
926 583 0
-927 -586 0
927 586 0
-928 -589 0
928 589 0
-929 -592 0
929 592 0
-930 -595 0
930 595 0
-931 -598 0
931 598 0
-932 -601 0
932 601 0
-933 -604 0
933 604 0
-934 -606 0
934 606 0
-935 -609 0
935 609 0
-936 -612 0
936 612 0
-937 -615 0
937 615 0
-938 -618 0
938 618 0
-939 -621 0
939 621 0
-940 -624 0
940 624 0
-941 -627 0
941 627 0
-942 -630 0
942 630 0
-943 -633 0
943 633 0
-944 -636 0
944 636 0
-945 -639 0
945 639 0
-946 -642 0
946 642 0
-947 -645 0
947 645 0
-948 -648 0
948 648 0
-949 -651 0
949 651 0
-950 -654 0
950 654 0
-951 -657 0
951 657 0
-952 -660 0
952 660 0
-953 -663 0
953 663 0
-954 -666 0
954 666 0
-955 -669 0
955 669 0
-956 -671 0
956 671 0
-957 -674 0
957 674 0
-958 -677 0
958 677 0
-959 -680 0
959 680 0
-960 -683 0
960 683 0
-961 -686 0
961 686 0
-962 -689 0
962 689 0
-963 -692 0
963 692 0
-964 -695 0
964 695 0
696 0
